
A = 3;
T = 63;
X = 8;
Y = 8;
Z = 8;
building = array2d(0..7, 0..7,
                   [0, 0, 0, 0, 0, 0, 0, 0, 0, 6, 2, 1, 0, 1, 2, 0, 0, 3, 4, 7, 7, 5, 2, 0, 0, 6, 2, 1, 1, 1, 1, 0,
                    0, 1, 1, 1, 1, 1, 1, 0, 0, 1, 1, 1, 1, 1, 1, 0, 0, 1, 1, 1, 1, 1, 1, 0, 0, 0, 0, 0, 0, 0, 0, 0]);
